(set-logic HORN)
(declare-fun !inv0 (Int (Array Int Int) Int ) Bool)
(declare-fun !inv1 (Int (Array Int Int) Int Int ) Bool)
(assert (forall ((SIZE@0 Int)(i@0 Int)(a@0 (Array Int Int))) (=> (and (> |SIZE@0| 0) (= |i@0| 0)) (!inv0 |SIZE@0| |a@0| |i@0|))))
(assert (forall ((SIZE@0 Int)(a@0 (Array Int Int))(i@0 Int)(a@1 (Array Int Int))(i@1 Int)) (=> (and (!inv0 |SIZE@0| |a@0| |i@0|) (< |i@0| |SIZE@0|) (= |a@1| (store |a@0| |i@0| 0)) (= |i@1| (+ |i@0| 1))) (!inv0 |SIZE@0| |a@1| |i@1|))))
(assert (forall ((SIZE@0 Int)(a@0 (Array Int Int))(i@0 Int)(j@0 Int)) (=> (and (!inv0 |SIZE@0| |a@0| |i@0|) (not (< |i@0| |SIZE@0|)) (= |j@0| 0)) (!inv1 |SIZE@0| |a@0| |i@0| |j@0|))))
(assert (forall ((SIZE@0 Int)(a@0 (Array Int Int))(i@0 Int)(j@0 Int)) (=> (and (!inv1 |SIZE@0| |a@0| |i@0| |j@0|) (not (< |j@0| (/ |SIZE@0| 2))) (not (forall ((k@0 Int)) (=> (and (<= 0 |k@0|) (< |k@0| (/ |SIZE@0| 2))) (= (select |a@0| |k@0|) 10))))) false)))
(assert (forall ((SIZE@0 Int)(a@0 (Array Int Int))(i@0 Int)(j@0 Int)(a@1 (Array Int Int))(j@1 Int)) (=> (and (!inv1 |SIZE@0| |a@0| |i@0| |j@0|) (< |j@0| (/ |SIZE@0| 2)) (= |a@1| (store |a@0| |j@0| 10)) (= |j@1| (+ |j@0| 1))) (!inv1 |SIZE@0| |a@1| |i@0| |j@1|))))
(check-sat)